(set-info :Origin "This instance was generated by: BanditFuzz-- an RL fuzzer for SMT solvers" )
(set-info :Author "Joe Scott, Fed Mora, Vijay Ganesh" )
(set-info :Contact "Joe Scott, joseph.scott@uwaterloo.ca")
; solvers/z3.sh
; 	time => 0.05697202682495117
; 	answer => unsat
; solvers/cvc4.sh
; 	time => 0.05270218849182129
; 	answer => unsat
(set-logic QF_NIRA)
(declare-const bool_0 Bool)
(declare-const bool_1 Bool)
(declare-const bool_2 Bool)
(declare-const bool_3 Bool)
(declare-const bool_4 Bool)
(declare-const int_0 Int)
(declare-const int_1 Int)
(declare-const int_2 Int)
(declare-const int_3 Int)
(declare-const int_4 Int)
(declare-const real_0 Real)
(declare-const real_1 Real)
(declare-const real_2 Real)
(declare-const real_3 Real)
(declare-const real_4 Real)
(assert (xor (> (- 999297000) (+ int_4 int_3)) (=> (<= 531671790.6526437 (- 259645615.94623768)) (> 53838263 int_0))))
(assert (and (>= (- int_1) (mod int_3 int_4)) (< (- int_1 (- 735533522)) (* 680909921 int_0))))
(assert (<= (- (- int_4 (- 141404932))) (/ (- int_1) (- 358354764))))
(assert (>= (+ (+ (- 265361831.0134313) 713576462.786241) (- (- 190737863.73023617))) (+ (- 838928888.8143108 (- 642143461.057369)) (+ real_2 (- 874920632.7152861)))))
(assert (and (>= (mod int_0 (- 23944793)) (+ int_1 (- 705315044))) (not (> (- 65275657) (- 546906545)))))
(check-sat)
(exit)
